NAME          COPTPROB
OBJSENSE
  MIN
ROWS
 N  __OBJ___
 L  C43     
 L  C149    
 L  C188    
COLUMNS
    MARKER    'MARKER'                 'INTORG'
    x55       __OBJ___  159
    x55       C149      -1
    x108      __OBJ___  206
    x108      C149      -1
    x108      C188      -1
    x524      __OBJ___  88
    x524      C43       -1
    x524      C188      -1
    x567      __OBJ___  198
    x567      C43       -1
    x567      C149      -1
    MARKER    'MARKER'                 'INTEND'
RHS
    RHS       __OBJ___  -17481
    RHS       C43       -1
    RHS       C149      -1
    RHS       C188      -1
BOUNDS
 UP BOUND     x55       1
 UP BOUND     x108      1
 UP BOUND     x524      1
 UP BOUND     x567      1
ENDATA
